M+/Instances/S1-15-M+/S1-10-15-2-s-M+.txt
     100      15    0.10
       2       2       3       1       2       2       2       1       3       2       2       3       3       1       2       1       4       4      14       6      11       7       6      11      16       8       7       0       8      11       3
       3       3       2       2       3       3       1       2       1       3       2       2       3       3       1       8      16       2       6      13       4       4       1      14       2      14       1       1      13       5       3
       3       2       2       3       1       3       1       3       2       3       3       2       1       2       1       4      12      11       9       3       9      12       9       0       5      12       9       2       1       1       1
       1       3       2       3       3       1       3       2       3       3       3       3       1       2       1       4      11      11       6      14      16       2       5      16      10      12       0      13      10      10       2
       2       3       1       2       2       3       2       3       3       3       1       3       2       1       2       7       0       5       9       2      15      12       6      11      14      11       1      14       2       1       3
       1       2       1       3       3       3       3       2       2       3       3       3       1       1       2       8       1       9       6       3      13      14       5       4      14      16      15       6       2      10       1
       2       2       3       1       2       1       3       2       1       1       3       2       2       3       3      12      15       5       0       5       8      10      13       3      12       3      14       2      11      15       1
       2       3       2       2       2       2       3       3       2       2       3       3       3       1       1       2       2      13       4      13      14      15      12       5       1       5       0       4       9       2       1
       3       2       3       1       1       2       1       1       1       1       2       2       1       2       1       3       7       2       5      13      14       5      14       1       6       8      10      15      16       8       2
       3       3       2       2       1       3       1       3       1       1       3       1       2       1       2       6       4      14       1       9       2      15       0      15       1       5       2      13      16       2       3
       2       1       2       3       1       3       2       3       3       3       1       3       1       1       3       6       9      16      11      13      12       8      14       4       8      13       9      15       8      13       1
       3       3       2       2       1       3       3       1       2       2       2       1       3       2       3       6      10      13       6      14       1       7      13      12       3       6      13      12      16       8       3
       3       2       3       2       1       3       1       3       3       1       3       1       3       1       3      15       8       1       0       5       0       3      10      15      11      11      11       1       9      13       3
       1       1       2       3       1       3       2       1       1       2       3       1       3       3       2       8       2       7      11       2      10      15       0       6      10       3       5       8       5       1       1
       3       1       2       2       2       3       1       2       2       2       3       2       3       2       1       5      11      15      14      15       7       3       9       2      12       4       4      15       3       3       2
       1       1       3       1       2       3       3       3       3       3       3       2       1       1       1      15       5      12      15       6       6       0      12      16       7      15       0       2       1      10       2
       1       2       1       3       1       1       3       1       1       2       1       3       1       1       3       9      13       2      11       8       8       5       5      15      10      10       1       8       3       1       2
       3       1       1       1       1       3       3       1       3       2       1       1       1       1       2       6       3       2      14       2       9      13       5       8       6       4      13      10       8       9       1
       2       3       2       3       3       1       1       2       1       1       1       2       3       3       2      15       3      15       2       7       7      11       0      15       1       4       4      13       0       5       1
       1       3       2       1       1       3       2       3       2       3       1       1       1       2       3      12      12       6       8       6      16       9       8       2      11       4       7       4      12      15       1
       3       1       2       3       3       1       3       3       2       3       2       3       3       2       3       7       4       4       4       7       8      10      14       3      11      11       4       2       5       3       3
       3       2       1       3       3       3       1       1       1       1       2       1       3       3       1      15      16       4       4       2       5      16       4       0       4       8      16       5      16      10       1
       3       1       3       3       1       1       1       1       1       1       3       2       3       1       3       2       6       9       8      11       5       5       3       0       1       9       8       1       3      15       1
       1       1       2       3       3       1       2       1       2       1       2       3       3       3       2       5       9       5      13       8      13      13       4       1      12      12      12      14       8       4       3
       2       1       1       2       3       1       3       2       1       1       3       1       3       2       3       9       0      16       6       8       9       6      14       9       4       1       0       7       5      11       1
       1       1       1       3       2       3       1       3       1       3       1       3       1       3       3      13       7       7       3      14       6      15       4      11      12       0       6      15       0      14       3
       1       3       3       3       2       2       2       1       1       3       1       3       1       3       3       5       8       8      15       6      14       0       2       3       2      16      15      11       6       6       1
       3       3       2       3       2       2       1       3       3       2       2       2       3       2       2       5      10      10       2       5       6       6       5      16       8      16       6      16       5      10       2
       2       2       2       1       1       3       2       1       1       2       3       1       3       1       2       7       8       6      10       1      16      10      10       1      12      15       3      16       9      13       3
       1       3       2       3       1       3       3       1       1       1       1       2       2       1       2       0       0       4       0       1       5       8      16      10       8      16      10       1       1       3       3
       2       1       1       1       1       1       2       2       2       2       2       2       1       1       2      12      15      15       0       0      12       5      10       6      12       0       8      13      13      14       1
       3       1       1       2       3       3       2       2       2       2       3       1       3       2       2       4       7       3      15       9      11      13       5       4      11       8      10       1      12       1       1
       2       2       3       2       1       1       1       1       1       2       2       1       3       1       1       9       0      12       2      10      10      15       7      16      16       4       8      14       6      10       1
       1       1       3       3       2       2       3       1       1       2       3       2       1       3       2       8      10       3       2       5      10      12       9       0       5      10       7      13       8       8       1
       2       3       1       2       2       2       1       2       1       1       3       1       2       1       1      14      10       7       2       0       1       2       1       8      13       2       7      10       0       5       1
       3       2       2       1       1       2       2       2       1       2       2       3       3       1       1       8       1       6       6      14       8       2      10       0       1       3      11       5       7       7       2
       1       1       2       2       1       3       2       3       3       2       2       1       3       2       1      11       3       8      10       9      12       4       0      14       0       9       4       9       4      15       3
       3       3       1       1       2       3       3       2       1       1       2       1       3       1       3       6       7       3       9       0       9      16       6       7       8      14      12       4      10       6       1
       3       1       3       2       2       3       1       2       2       2       2       1       3       1       1       2       3       8      16      15      16       3      15       3      15      12       5      15       6       4       2
       2       3       3       1       3       1       3       2       3       2       1       1       2       3       1      12       1      11       7      12       1      14      13       0      10       6       4      16      15      11       2
       1       2       3       2       2       3       3       1       3       3       1       1       2       2       1       1      16       7       2       8       5       4      16       7      15      16       8       9       9       6       3
       1       3       2       3       3       3       2       3       2       2       2       3       1       1       2       6      11      11      12       5       5       3      13      15       1       1       1      10       1       7       3
       1       3       1       2       3       3       3       2       3       3       3       1       1       3       2       1       8       2       4       1       4      15       2       8      12       9      15       6       3      15       1
       2       3       1       2       2       1       1       3       2       2       2       1       1       2       2      11      16       5      10      12       0      12       4      16      10      15       2       2      10      10       3
       2       2       2       2       1       2       2       2       3       3       1       3       3       1       2      12       4       8      11      12       5      11       4      16       4       6       0      12       2       8       3
       2       2       3       1       3       2       1       1       3       3       2       3       1       1       1      10      11      16      16       5      12       5       9       5       3      11       0      13      13      15       1
       3       1       2       1       3       3       3       2       1       1       3       2       3       2       2       6      13       8       2      16      11      16      13       1       9       6       3       6      15      11       2
       2       3       3       2       2       1       3       1       1       3       3       1       3       2       3      10       5       1       5       7       3       3       7      14      16      15      15       4       9      10       1
       2       3       1       2       3       1       2       2       3       3       2       3       3       2       2      11       4       8      15       5      16       5       5      11       1       0      11       4      11      12       2
       1       1       3       2       3       1       2       1       2       1       1       2       1       1       1       2       3      16      10       6       5      12       6       0      16       5       5      16      12      13       3
       1       1       3       2       1       1       3       1       2       1       2       3       3       1       2      16       2       8       8      10       0      13      14       8       8      15       0       4      10       8       3
       1       3       2       3       2       3       3       1       3       1       1       2       1       2       2       8       1       5      13      11      11       1       3       9       4      12       3       5      14       5       3
       3       1       3       2       3       2       1       1       1       3       1       2       2       2       3      11       4      12      15      15      10       5       3       5      12      12       7       2      16       7       2
       3       1       3       3       3       2       2       3       3       3       2       1       2       1       3       8       1       8       3       3       0      15       1      12       4      10       9       4       8       0       3
       2       3       3       1       1       2       3       3       1       3       2       2       1       3       1       5      10      10      16       5       8      16       8       0       4      16      14      11       1       6       2
       1       1       2       2       3       3       3       1       3       3       1       1       2       1       1       1       7       5      12       0       8       9      11       4       2      15       7       7       1      10       1
       1       3       1       2       2       1       2       1       2       2       3       3       3       3       2      11       1      11      15       3       9       9       7       3      11      14       5       2       0      15       2
       1       1       1       2       1       2       1       2       1       1       3       3       3       1       3       9      10       4       3      14       9       7      12       7       3      15      13       9      15       5       2
       3       3       2       1       2       3       1       3       1       3       3       1       3       1       3      10       9      16      13       5       8       3      15      15      10       0       1      13       9       8       2
       2       3       2       3       3       2       1       2       1       2       3       3       2       3       1      13       3       0      10      15      10      16       3       0      13       8       7       6      15       6       3
       3       1       3       2       3       2       3       2       3       1       3       3       3       2       1      14       0      10       7       8       1      15       5       7       8       3      11       8       5       7       2
       1       3       1       3       2       1       3       3       1       1       1       2       3       2       1       1      15       7      12       7      13       0      11      11      12      12      15      14      13      14       2
       1       1       2       3       2       1       1       3       3       2       3       2       1       1       1       6       3      10       5       2       0       9       9      12       9       4      11       0       9       1       1
       2       3       3       2       3       2       3       2       1       2       3       1       1       2       3      13      10       2      13      11       9      16       3       2       3      14      15      11       5      10       1
       2       2       3       2       3       2       1       3       1       1       1       2       3       2       3       5       3       7       5       5       1       8       6      16       8      12      12      12       9       9       1
       1       2       3       2       3       1       2       2       1       1       2       3       1       3       3       6       6       1      11       3      12       8       5       8       9      15       4       1      13       6       1
       3       3       2       2       2       1       2       2       1       2       3       3       2       3       2      14      14       8       7      15       2       2      14       6      10      16      14      10       0      13       1
       3       1       2       3       3       3       2       2       2       3       2       3       3       1       1       9      13       2      10       6      15       3      13      14       8       2      16       1      12       3       3
       1       3       1       2       3       2       1       2       2       3       3       2       1       3       3      15      14       0       6       2      13      15       7       9       5       8      15       5      15       3       2
       1       1       3       1       1       2       1       3       2       2       1       3       1       2       3       8      15       2      13      12      11       1       0       6      13      14      12      14      11       7       3
       2       3       3       1       1       2       1       3       2       1       3       2       3       3       2       1       9      10      13       0       9      13       8       7       5       2       8       8       8      14       1
       3       1       3       3       2       2       2       1       1       3       1       3       1       1       2       6       9      12       7      11       2       2       5       3      13      13      13       3       0       5       2
       2       2       3       3       1       3       1       3       2       1       3       2       1       1       3      16       5      13       9       9       1      15      15       9      14      10       2      15       0       2       1
       3       3       1       3       1       2       1       3       1       1       2       2       2       3       3      13      16       1       5       9      16       6       1      11       1       0       4      10       0      11       1
       3       3       2       3       3       1       1       3       2       3       3       3       1       2       2      10       3       7       0       6       4       9      16      10       1       7       3      10       1       9       1
       3       2       1       1       1       2       1       3       2       1       1       2       2       3       3      13      11       0      11      13      15      13       4       2       2       8      14       3       5      14       2
       2       1       1       1       2       3       3       1       1       1       2       1       1       2       1       0       2      11       7       6      12       1      15       8       4       9       0       9      15      15       2
       1       3       2       3       2       3       3       1       3       1       3       1       1       2       1      12      10       0       9      12       8      10      15       2      15      14       0      13       2      16       1
       1       1       3       2       1       3       2       2       2       3       3       1       1       2       2      14       0       1       2       4       3       7       3      16      16       4       2      13       7       7       3
       2       2       3       1       3       2       3       3       2       1       3       2       1       2       3       3       7       8      13      15      11       3       8      11      10      16       4      16      11       3       1
       1       1       3       1       1       3       2       1       3       1       1       3       1       1       1      14       6      13       4       0       6       5      13      11      10       1       4      16      15      13       1
       1       1       1       3       1       3       3       3       1       2       3       1       3       3       3       5      10       2      16      11       7      13      13       4       8       0       4      16      15       3       2
       1       1       3       2       3       3       2       3       3       3       3       3       2       2       3      11       0       1       8      12       8       4      11       5       5      13       4      10       4       3       1
       1       1       2       1       1       3       3       2       3       2       3       1       3       3       3       1      10       5       4       3       7      11       8      15       8       6      10      12      10      16       1
       2       3       2       3       1       2       1       1       2       1       3       2       1       2       1       2      13       3      13       0       7       6       8      10      16       5       2      11       3      12       1
       2       3       3       3       3       1       2       3       2       2       1       1       3       1       3      12       0      14       8      11       3      16      15      16      14       3       7      12       4       6       1
       3       1       3       1       2       1       2       3       1       3       3       3       2       2       3       0      13      12       3      13       4      12      12      13       9       7       2      14      15       2       2
       1       3       1       1       3       2       1       2       2       1       3       1       3       2       3       6      11      12      10       9       6       5      12      13       5       7       3      11       2      14       1
       1       2       3       1       1       1       1       3       1       2       3       2       3       3       2      15      15       5       1       4      12       3      11       6       9       3       7      11      12       6       3
       2       2       2       2       2       2       3       3       1       3       1       3       2       1       3      15      10      10       5       1       2       3       9       5      16       5      14      16       5      15       3
       3       3       2       3       1       3       1       2       3       1       1       3       3       3       2      12       4       4      12       5      12      10      13      12      10       0      15      12       1       8       1
       3       2       3       2       3       1       2       1       2       3       2       2       3       1       2      10       5      13      16       2      11       8       8      12       9       9       5       7       4       0       2
       2       3       3       1       2       3       1       1       1       1       3       3       1       2       3      13       3       9       6      10      14      15      14      11      10       4      12      13       9       0       3
       3       3       2       1       2       3       1       1       1       1       1       3       2       1       1      11      16       2      16       1       1       2       5      14       4      10      11       2       8       4       2
       1       3       1       2       2       2       1       2       3       1       1       1       3       3       1      13       3      13      11       7       7      10       6       0       2       6       2       7       9      14       2
       2       1       3       2       2       1       2       2       1       2       2       3       2       1       2       1      15       5       8       9      14       0       4       3      13      15       6       3      15       8       2
       3       3       2       3       3       2       3       2       2       1       3       1       3       1       3       8      12       4      10      14       4       3       0      15       3       9      13      10       1       4       3
       2       2       2       2       3       2       3       1       2       2       1       3       2       3       1       8      16      13       1      11       4       9      13       2      14       8      11       1       0       1       2
       3       3       1       1       3       1       3       2       2       2       1       3       2       2       2       9      16       3       1       1      12       4       2       1      10      13       8      10       1       3       2
       2       1       1       3       3       2       2       3       3       2       1       2       1       1       2      11       2       5      12       1       0      14      16      10      14      13       1      10       0       2       3
      18      13      15      17      21      22      15      21      13      13      12      20      22      21      12
      35      48      50      43      45      49      29      46      25      28      47      44      47      40      47
      89      51      52      62      62     101      49      60      52      59      46      72     114      57      39