M+/results-log/S1-15-M+/S1-10-15-2-s-M+.log
CPXPARAM_Read_DataCheck                          1
Found incumbent of value 0.000000 after 0.00 sec. (0.04 ticks)
Tried aggregator 1 time.
MIP Presolve modified 1 coefficients.
Reduced MIP has 146 rows, 1515 columns, and 7560 nonzeros.
Reduced MIP has 1515 binaries, 0 generals, 0 SOSs, and 0 indicators.
Presolve time = 0.00 sec. (3.00 ticks)
Probing time = 0.00 sec. (2.03 ticks)
Tried aggregator 1 time.
Reduced MIP has 146 rows, 1515 columns, and 7560 nonzeros.
Reduced MIP has 1515 binaries, 0 generals, 0 SOSs, and 0 indicators.
Presolve time = 0.00 sec. (3.54 ticks)
Probing time = 0.00 sec. (1.90 ticks)
Clique table members: 2242.
MIP emphasis: balance optimality and feasibility.
MIP search method: dynamic search.
Parallel mode: deterministic, using up to 4 threads.
Root relaxation solution time = 0.00 sec. (4.39 ticks)

        Nodes                                         Cuts/
   Node  Left     Objective  IInf  Best Integer    Best Bound    ItCnt     Gap

*     0+    0                            0.0000     9179.0000              --- 
      0     0     1948.5762    15        0.0000     1948.5762      260     --- 
      0     0     1807.1691   178        0.0000     Cuts: 150      484     --- 
      0     0     1783.9239   161        0.0000     Cuts: 131      678     --- 
*     0+    0                         1771.0000     1783.9239             0.73%
*     0+    0                         1775.0000     1783.9239             0.50%
      0     0     1777.6900   228     1775.0000      Cuts: 63      777    0.15%
*     0+    0                         1776.0000     1777.3792             0.08%
      0     0        cutoff           1776.0000     1776.5714      777    0.03%
Elapsed time = 0.19 sec. (113.81 ticks, tree = 0.01 MB, solutions = 4)

Clique cuts applied:  157
Cover cuts applied:  24
Implied bound cuts applied:  1
Flow cuts applied:  3
Mixed integer rounding cuts applied:  15
Zero-half cuts applied:  5
Gomory fractional cuts applied:  1

Root node processing (before b&c):
  Real time             =    0.20 sec. (113.93 ticks)
Parallel b&c, 4 threads:
  Real time             =    0.00 sec. (0.00 ticks)
  Sync time (average)   =    0.00 sec.
  Wait time (average)   =    0.00 sec.
                          ------------
Total (root+branch&cut) =    0.20 sec. (113.93 ticks)
